Maximize
  - 2.898221210164 edge_0_1_0_0 - 3.7764667967256 edge_0_4_0_0
   - 2.4847263957808 edge_0_6_0_0 - 2.9548578039173 edge_0_7_0_0
   - 2.1058025251705 edge_0_8_0_0 - 3.4007742209945 edge_0_10_0_0
   - 3.4058578075915 edge_0_11_0_0 - 3.1363543151264 edge_0_16_0_0
   - 1.6110393233632 edge_0_17_0_0 - 4.296438453281599 edge_0_21_0_0
   + 0.075314165257151 edge_1_2_0_0 - 0.1435457291334322 edge_1_4_0_0
   - 0.4575373261318648 edge_1_6_0_0 - 0.5472710098897274 edge_1_8_0_0
   - 0.4753244343601432 edge_2_1_0_0 - 0.127400395843098 edge_2_4_0_0
   - 0.1796414648753312 edge_4_1_0_0 + 0.6876041785862668 edge_4_2_0_0
   + 0.1541118640292861 edge_4_6_0_0 + 0.2026805406118896 edge_4_7_0_0
   + 0.5647971499917762 edge_4_8_0_0 - 0.4406097433251715 edge_4_10_0_0
   - 0.7131386560108932 edge_4_11_0_0 - 0.9326968570796382 edge_4_12_0_0
   - 0.6873358481034625 edge_4_17_0_0 - 0.4603471293560522 edge_4_28_0_0
   - 0.5626514347575111 edge_6_1_0_0 - 0.254134931224588 edge_6_2_0_0
   - 0.0608845069220765 edge_6_4_0_0 + 0.1102590543317405 edge_6_7_0_0
   + 0.1452005514610393 edge_6_8_0_0 - 0.656887559365871 edge_6_10_0_0
   - 0.255700817277502 edge_6_11_0_0 - 0.0558758295498022 edge_7_1_0_0
   + 0.6880330890592674 edge_7_2_0_0 + 0.0612189635030045 edge_7_4_0_0
   + 1.081296999802103 edge_7_6_0_0 + 1.212283642929083 edge_7_8_0_0
   + 0.0477181816073884 edge_7_9_0_0 + 0.1404698330512202 edge_7_10_0_0
   + 0.4320766211811046 edge_7_11_0_0 - 0.0742230717272288 edge_7_17_0_0
   + 0.4162195583921985 edge_8_1_0_0 + 1.626404624770243 edge_8_2_0_0
   + 1.671694312233085 edge_8_4_0_0 + 2.287333613752075 edge_8_6_0_0
   + 2.633029479545153 edge_8_7_0_0 + 0.3948926586174676 edge_8_9_0_0
   + 2.25783368888558 edge_8_10_0_0 + 0.9755648539129272 edge_8_11_0_0
   + 0.8796771039307469 edge_8_12_0_0 + 0.2179165368378433 edge_8_14_0_0
   + 0.5435443467975828 edge_8_15_0_0 + 0.8597131131667749 edge_8_16_0_0
   + 1.123467656581886 edge_8_17_0_0 - 0.7444104039041238 edge_8_18_0_0
   - 0.165425025398309 edge_8_19_0_0 - 0.4461874840935751 edge_8_20_0_0
   + 0.5271112468165428 edge_8_21_0_0 + 1.663766080867346 edge_8_22_0_0
   + 0.8455880253743323 edge_8_25_0_0 - 0.8033005124286912 edge_8_26_0_0
   - 0.3598836191586211 edge_8_27_0_0 + 0.8782135381678603 edge_8_28_0_0
   + 0.5815482654407408 edge_8_30_0_0 + 0.1400006629657574 edge_9_11_0_0
   - 0.4562500210958753 edge_10_1_0_0 - 0.054114981996599 edge_10_2_0_0
   - 0.0609933419934451 edge_10_4_0_0 + 0.4332793135816194 edge_10_6_0_0
   + 0.4530427170236698 edge_10_7_0_0 + 0.0285777498244847 edge_10_8_0_0
   + 1.963307057951425 edge_10_9_0_0 + 2.885003454752719 edge_10_11_0_0
   + 0.5446820640752796 edge_10_12_0_0 + 0.1475728807007011 edge_10_14_0_0
   - 0.2611697813024541 edge_10_15_0_0 - 0.0237378562843778 edge_10_16_0_0
   + 0.8007201388184003 edge_10_17_0_0 - 0.3940015328095471 edge_10_21_0_0
   + 0.2362981702324175 edge_10_22_0_0 + 0.8447906636175683 edge_10_28_0_0
   + 0.0817546385293181 edge_10_30_0_0 - 0.7683772546956357 edge_11_2_0_0
   - 0.2041846203146353 edge_11_6_0_0 - 0.362307634165857 edge_11_7_0_0
   + 0.7590217416373836 edge_11_9_0_0 - 0.4463151180584717 edge_11_17_0_0
   - 0.8174570411767906 edge_12_10_0_0 - 0.7653067753831051 edge_12_14_0_0
   - 0.005329143183107 edge_14_9_0_0 + 0.2440664912740229 edge_14_12_0_0
   - 0.1122500674812904 edge_14_15_0_0 - 0.7568638934266305 edge_15_1_0_0
   - 0.2278764156867112 edge_15_9_0_0 - 0.5186860528427097 edge_15_10_0_0
   + 0.399420200532161 edge_15_12_0_0 + 0.7460390583974086 edge_15_14_0_0
   - 0.4880058509186985 edge_15_16_0_0 - 0.8527449910425235 edge_15_18_0_0
   - 1.007363111352183 edge_15_19_0_0 + 0.6437251294295003 edge_16_12_0_0
   + 0.2339449671033398 edge_16_14_0_0 + 0.3930432346505658 edge_16_15_0_0
   + 2.159864146389478 edge_16_17_0_0 + 0.1845108995048931 edge_16_18_0_0
   + 0.1839701564028172 edge_16_19_0_0
   + 8.8944739918377384e-04 edge_16_20_0_0
   + 0.3175763454932745 edge_16_21_0_0 + 0.198781214749031 edge_16_22_0_0
   + 0.3243599935721086 edge_16_25_0_0 - 0.3553281273408775 edge_16_27_0_0
   + 0.5114198124402293 edge_16_28_0_0 + 0.2084420483708275 edge_16_30_0_0
   - 0.0267841446567425 edge_17_1_0_0 + 0.4461407750461358 edge_17_2_0_0
   + 0.5293967212829637 edge_17_4_0_0 + 0.6122399867175177 edge_17_6_0_0
   + 1.069781153487527 edge_17_7_0_0 + 0.2012664322938529 edge_17_8_0_0
   + 0.2667208224572075 edge_17_9_0_0 + 0.5842213752392692 edge_17_10_0_0
   + 0.5428422453657112 edge_17_11_0_0 + 2.192853226678758 edge_17_12_0_0
   + 1.440549522845346 edge_17_14_0_0 + 2.245735799924868 edge_17_15_0_0
   + 2.753761202616609 edge_17_16_0_0 + 0.8450245079708576 edge_17_18_0_0
   + 1.92037269365013 edge_17_19_0_0 + 1.217228658347749 edge_17_20_0_0
   + 2.457328083282971 edge_17_21_0_0 + 2.25365624278998 edge_17_22_0_0
   + 1.096252986073552 edge_17_25_0_0 + 0.4161110992470849 edge_17_26_0_0
   + 0.7712737616532541 edge_17_27_0_0 + 1.929969959447277 edge_17_28_0_0
   + 0.9618269175245249 edge_17_30_0_0 + 0.5082732204302339 edge_18_19_0_0
   + 0.0161031003785466 edge_18_20_0_0 - 1.102834653499283 edge_18_26_0_0
   - 0.4094452518928035 edge_19_8_0_0 - 0.1032670793726026 edge_19_9_0_0
   - 0.0361112306031566 edge_19_14_0_0 + 0.5763090800596963 edge_19_15_0_0
   + 0.7391517912560792 edge_19_16_0_0 + 0.5146682804667915 edge_19_17_0_0
   + 2.294183682534026 edge_19_18_0_0 + 0.6894030306244335 edge_19_20_0_0
   + 0.4769157435902405 edge_19_21_0_0 + 0.6731062002056394 edge_19_22_0_0
   + 0.2146517555698101 edge_19_25_0_0 + 0.00577036537364334 edge_19_26_0_0
   - 0.2119383177805524 edge_19_27_0_0 + 0.443038564940381 edge_19_28_0_0
   + 0.0981866589830964 edge_19_30_0_0 + 0.1520762356253279 edge_20_18_0_0
   + 0.1185243683138968 edge_20_19_0_0 - 0.8667333785790313 edge_21_7_0_0
   + 0.0320984063982195 edge_21_12_0_0 - 0.1508595230853521 edge_21_14_0_0
   - 0.0754863862765092 edge_21_15_0_0 + 0.3069013594719508 edge_21_16_0_0
   - 0.6703844770998013 edge_21_17_0_0 + 1.208148444489404 edge_21_18_0_0
   + 1.179329067136683 edge_21_19_0_0 + 2.54362672103805 edge_21_20_0_0
   + 0.4671767843536971 edge_21_22_0_0 + 0.257727368296614 edge_21_25_0_0
   - 0.4343948887510638 edge_21_26_0_0 + 0.7124411193390947 edge_21_27_0_0
   + 0.4576396234997162 edge_21_28_0_0 - 0.028850909025989 edge_21_30_0_0
   - 0.0661426496890738 edge_22_25_0_0 - 0.3087278510691345 edge_25_20_0_0
   - 0.4524093403815788 edge_25_21_0_0 + 0.1042576976230609 edge_25_22_0_0
   + 0.1292103379334751 edge_25_26_0_0 + 0.0310835820166472 edge_25_27_0_0
   - 0.0227799765863125 edge_25_28_0_0 + 0.1508463307083269 edge_26_25_0_0
   + 0.5565419481118371 edge_26_27_0_0 - 0.5521236899877427 edge_27_15_0_0
   - 0.5523692366856255 edge_27_16_0_0 - 0.7080318471364947 edge_27_18_0_0
   - 0.4522571878258045 edge_27_19_0_0 + 0.8100726124556162 edge_27_20_0_0
   - 0.7266658022639571 edge_27_21_0_0 - 0.5889831813055711 edge_27_22_0_0
   + 0.0255019890062663 edge_27_25_0_0 + 3.010646954523161 edge_27_26_0_0
   + 0.8541826807085053 edge_27_28_0_0 - 0.0021085294225557 edge_27_30_0_0
   - 1.372869684130158 edge_28_2_0_0 - 0.8090176939606608 edge_28_4_0_0
   - 0.1704993939641347 edge_28_6_0_0 - 0.7011592671372926 edge_28_7_0_0
   - 0.7118534795295629 edge_28_8_0_0 - 0.5270712189221108 edge_28_9_0_0
   - 0.9923327514546032 edge_28_10_0_0 + 1.194850209178571 edge_28_12_0_0
   + 0.0570010187133276 edge_28_14_0_0 + 0.5861888892726421 edge_28_15_0_0
   + 0.1473817136968247 edge_28_16_0_0 - 0.0305552664005807 edge_28_17_0_0
   + 0.2452518077557917 edge_28_18_0_0 + 0.381842824734808 edge_28_19_0_0
   + 0.7476910137555186 edge_28_20_0_0 + 0.7041148744873339 edge_28_21_0_0
   + 0.7388228437414998 edge_28_22_0_0 + 0.1228705101393796 edge_28_25_0_0
   + 1.925096762608025 edge_28_26_0_0 + 2.119896794278768 edge_28_27_0_0
   + 0.6726177764648738 edge_28_30_0_0
Subject To
 one_parent_1: edge_0_1_0_0 + edge_2_1_0_0 + edge_4_1_0_0 + edge_6_1_0_0
   + edge_7_1_0_0 + edge_8_1_0_0 + edge_10_1_0_0 + edge_15_1_0_0
   + edge_17_1_0_0 = 1
 consume_one_flow_unit_1: flow_0_1_0_0 - flow_1_2_0_0 - flow_1_4_0_0
   - flow_1_6_0_0 - flow_1_8_0_0 + flow_2_1_0_0 + flow_4_1_0_0
   + flow_6_1_0_0 + flow_7_1_0_0 + flow_8_1_0_0 + flow_10_1_0_0
   + flow_15_1_0_0 + flow_17_1_0_0 = 1
 one_parent_2: edge_1_2_0_0 + edge_4_2_0_0 + edge_6_2_0_0 + edge_7_2_0_0
   + edge_8_2_0_0 + edge_10_2_0_0 + edge_11_2_0_0 + edge_17_2_0_0
   + edge_28_2_0_0 = 1
 consume_one_flow_unit_2: flow_1_2_0_0 - flow_2_1_0_0 - flow_2_4_0_0
   + flow_4_2_0_0 + flow_6_2_0_0 + flow_7_2_0_0 + flow_8_2_0_0
   + flow_10_2_0_0 + flow_11_2_0_0 + flow_17_2_0_0 + flow_28_2_0_0 = 1
 one_parent_3: = 1
 consume_one_flow_unit_3: = 1
 one_parent_4: edge_0_4_0_0 + edge_1_4_0_0 + edge_2_4_0_0 + edge_6_4_0_0
   + edge_7_4_0_0 + edge_8_4_0_0 + edge_10_4_0_0 + edge_17_4_0_0
   + edge_28_4_0_0 = 1
 consume_one_flow_unit_4: flow_0_4_0_0 + flow_1_4_0_0 + flow_2_4_0_0
   - flow_4_1_0_0 - flow_4_2_0_0 - flow_4_6_0_0 - flow_4_7_0_0
   - flow_4_8_0_0 - flow_4_10_0_0 - flow_4_11_0_0 - flow_4_12_0_0
   - flow_4_17_0_0 - flow_4_28_0_0 + flow_6_4_0_0 + flow_7_4_0_0
   + flow_8_4_0_0 + flow_10_4_0_0 + flow_17_4_0_0 + flow_28_4_0_0 = 1
 one_parent_5: = 1
 consume_one_flow_unit_5: = 1
 one_parent_6: edge_0_6_0_0 + edge_1_6_0_0 + edge_4_6_0_0 + edge_7_6_0_0
   + edge_8_6_0_0 + edge_10_6_0_0 + edge_11_6_0_0 + edge_17_6_0_0
   + edge_28_6_0_0 = 1
 consume_one_flow_unit_6: flow_0_6_0_0 + flow_1_6_0_0 + flow_4_6_0_0
   - flow_6_1_0_0 - flow_6_2_0_0 - flow_6_4_0_0 - flow_6_7_0_0
   - flow_6_8_0_0 - flow_6_10_0_0 - flow_6_11_0_0 + flow_7_6_0_0
   + flow_8_6_0_0 + flow_10_6_0_0 + flow_11_6_0_0 + flow_17_6_0_0
   + flow_28_6_0_0 = 1
 one_parent_7: edge_0_7_0_0 + edge_4_7_0_0 + edge_6_7_0_0 + edge_8_7_0_0
   + edge_10_7_0_0 + edge_11_7_0_0 + edge_17_7_0_0 + edge_21_7_0_0
   + edge_28_7_0_0 = 1
 consume_one_flow_unit_7: flow_0_7_0_0 + flow_4_7_0_0 + flow_6_7_0_0
   - flow_7_1_0_0 - flow_7_2_0_0 - flow_7_4_0_0 - flow_7_6_0_0
   - flow_7_8_0_0 - flow_7_9_0_0 - flow_7_10_0_0 - flow_7_11_0_0
   - flow_7_17_0_0 + flow_8_7_0_0 + flow_10_7_0_0 + flow_11_7_0_0
   + flow_17_7_0_0 + flow_21_7_0_0 + flow_28_7_0_0 = 1
 one_parent_8: edge_0_8_0_0 + edge_1_8_0_0 + edge_4_8_0_0 + edge_6_8_0_0
   + edge_7_8_0_0 + edge_10_8_0_0 + edge_17_8_0_0 + edge_19_8_0_0
   + edge_28_8_0_0 = 1
 consume_one_flow_unit_8: flow_0_8_0_0 + flow_1_8_0_0 + flow_4_8_0_0
   + flow_6_8_0_0 + flow_7_8_0_0 - flow_8_1_0_0 - flow_8_2_0_0
   - flow_8_4_0_0 - flow_8_6_0_0 - flow_8_7_0_0 - flow_8_9_0_0
   - flow_8_10_0_0 - flow_8_11_0_0 - flow_8_12_0_0 - flow_8_14_0_0
   - flow_8_15_0_0 - flow_8_16_0_0 - flow_8_17_0_0 - flow_8_18_0_0
   - flow_8_19_0_0 - flow_8_20_0_0 - flow_8_21_0_0 - flow_8_22_0_0
   - flow_8_25_0_0 - flow_8_26_0_0 - flow_8_27_0_0 - flow_8_28_0_0
   - flow_8_30_0_0 + flow_10_8_0_0 + flow_17_8_0_0 + flow_19_8_0_0
   + flow_28_8_0_0 = 1
 one_parent_9: edge_7_9_0_0 + edge_8_9_0_0 + edge_10_9_0_0 + edge_11_9_0_0
   + edge_14_9_0_0 + edge_15_9_0_0 + edge_17_9_0_0 + edge_19_9_0_0
   + edge_28_9_0_0 = 1
 consume_one_flow_unit_9: flow_7_9_0_0 + flow_8_9_0_0 - flow_9_11_0_0
   + flow_10_9_0_0 + flow_11_9_0_0 + flow_14_9_0_0 + flow_15_9_0_0
   + flow_17_9_0_0 + flow_19_9_0_0 + flow_28_9_0_0 = 1
 one_parent_10: edge_0_10_0_0 + edge_4_10_0_0 + edge_6_10_0_0
   + edge_7_10_0_0 + edge_8_10_0_0 + edge_12_10_0_0 + edge_15_10_0_0
   + edge_17_10_0_0 + edge_28_10_0_0 = 1
 consume_one_flow_unit_10: flow_0_10_0_0 + flow_4_10_0_0 + flow_6_10_0_0
   + flow_7_10_0_0 + flow_8_10_0_0 - flow_10_1_0_0 - flow_10_2_0_0
   - flow_10_4_0_0 - flow_10_6_0_0 - flow_10_7_0_0 - flow_10_8_0_0
   - flow_10_9_0_0 - flow_10_11_0_0 - flow_10_12_0_0 - flow_10_14_0_0
   - flow_10_15_0_0 - flow_10_16_0_0 - flow_10_17_0_0 - flow_10_21_0_0
   - flow_10_22_0_0 - flow_10_28_0_0 - flow_10_30_0_0 + flow_12_10_0_0
   + flow_15_10_0_0 + flow_17_10_0_0 + flow_28_10_0_0 = 1
 one_parent_11: edge_0_11_0_0 + edge_4_11_0_0 + edge_6_11_0_0
   + edge_7_11_0_0 + edge_8_11_0_0 + edge_9_11_0_0 + edge_10_11_0_0
   + edge_17_11_0_0 = 1
 consume_one_flow_unit_11: flow_0_11_0_0 + flow_4_11_0_0 + flow_6_11_0_0
   + flow_7_11_0_0 + flow_8_11_0_0 + flow_9_11_0_0 + flow_10_11_0_0
   - flow_11_2_0_0 - flow_11_6_0_0 - flow_11_7_0_0 - flow_11_9_0_0
   - flow_11_17_0_0 + flow_17_11_0_0 = 1
 one_parent_12: edge_4_12_0_0 + edge_8_12_0_0 + edge_10_12_0_0
   + edge_14_12_0_0 + edge_15_12_0_0 + edge_16_12_0_0 + edge_17_12_0_0
   + edge_21_12_0_0 + edge_28_12_0_0 = 1
 consume_one_flow_unit_12: flow_4_12_0_0 + flow_8_12_0_0 + flow_10_12_0_0
   - flow_12_10_0_0 - flow_12_14_0_0 + flow_14_12_0_0 + flow_15_12_0_0
   + flow_16_12_0_0 + flow_17_12_0_0 + flow_21_12_0_0 + flow_28_12_0_0 = 1
 one_parent_13: = 1
 consume_one_flow_unit_13: = 1
 one_parent_14: edge_8_14_0_0 + edge_10_14_0_0 + edge_12_14_0_0
   + edge_15_14_0_0 + edge_16_14_0_0 + edge_17_14_0_0 + edge_19_14_0_0
   + edge_21_14_0_0 + edge_28_14_0_0 = 1
 consume_one_flow_unit_14: flow_8_14_0_0 + flow_10_14_0_0 + flow_12_14_0_0
   - flow_14_9_0_0 - flow_14_12_0_0 - flow_14_15_0_0 + flow_15_14_0_0
   + flow_16_14_0_0 + flow_17_14_0_0 + flow_19_14_0_0 + flow_21_14_0_0
   + flow_28_14_0_0 = 1
 one_parent_15: edge_8_15_0_0 + edge_10_15_0_0 + edge_14_15_0_0
   + edge_16_15_0_0 + edge_17_15_0_0 + edge_19_15_0_0 + edge_21_15_0_0
   + edge_27_15_0_0 + edge_28_15_0_0 = 1
 consume_one_flow_unit_15: flow_8_15_0_0 + flow_10_15_0_0 + flow_14_15_0_0
   - flow_15_1_0_0 - flow_15_9_0_0 - flow_15_10_0_0 - flow_15_12_0_0
   - flow_15_14_0_0 - flow_15_16_0_0 - flow_15_18_0_0 - flow_15_19_0_0
   + flow_16_15_0_0 + flow_17_15_0_0 + flow_19_15_0_0 + flow_21_15_0_0
   + flow_27_15_0_0 + flow_28_15_0_0 = 1
 one_parent_16: edge_0_16_0_0 + edge_8_16_0_0 + edge_10_16_0_0
   + edge_15_16_0_0 + edge_17_16_0_0 + edge_19_16_0_0 + edge_21_16_0_0
   + edge_27_16_0_0 + edge_28_16_0_0 = 1
 consume_one_flow_unit_16: flow_0_16_0_0 + flow_8_16_0_0 + flow_10_16_0_0
   + flow_15_16_0_0 - flow_16_12_0_0 - flow_16_14_0_0 - flow_16_15_0_0
   - flow_16_17_0_0 - flow_16_18_0_0 - flow_16_19_0_0 - flow_16_20_0_0
   - flow_16_21_0_0 - flow_16_22_0_0 - flow_16_25_0_0 - flow_16_27_0_0
   - flow_16_28_0_0 - flow_16_30_0_0 + flow_17_16_0_0 + flow_19_16_0_0
   + flow_21_16_0_0 + flow_27_16_0_0 + flow_28_16_0_0 = 1
 one_parent_17: edge_0_17_0_0 + edge_4_17_0_0 + edge_7_17_0_0
   + edge_8_17_0_0 + edge_10_17_0_0 + edge_11_17_0_0 + edge_16_17_0_0
   + edge_19_17_0_0 + edge_21_17_0_0 + edge_28_17_0_0 = 1
 consume_one_flow_unit_17: flow_0_17_0_0 + flow_4_17_0_0 + flow_7_17_0_0
   + flow_8_17_0_0 + flow_10_17_0_0 + flow_11_17_0_0 + flow_16_17_0_0
   - flow_17_1_0_0 - flow_17_2_0_0 - flow_17_4_0_0 - flow_17_6_0_0
   - flow_17_7_0_0 - flow_17_8_0_0 - flow_17_9_0_0 - flow_17_10_0_0
   - flow_17_11_0_0 - flow_17_12_0_0 - flow_17_14_0_0 - flow_17_15_0_0
   - flow_17_16_0_0 - flow_17_18_0_0 - flow_17_19_0_0 - flow_17_20_0_0
   - flow_17_21_0_0 - flow_17_22_0_0 - flow_17_25_0_0 - flow_17_26_0_0
   - flow_17_27_0_0 - flow_17_28_0_0 - flow_17_30_0_0 + flow_19_17_0_0
   + flow_21_17_0_0 + flow_28_17_0_0 = 1
 one_parent_18: edge_8_18_0_0 + edge_15_18_0_0 + edge_16_18_0_0
   + edge_17_18_0_0 + edge_19_18_0_0 + edge_20_18_0_0 + edge_21_18_0_0
   + edge_27_18_0_0 + edge_28_18_0_0 = 1
 consume_one_flow_unit_18: flow_8_18_0_0 + flow_15_18_0_0 + flow_16_18_0_0
   + flow_17_18_0_0 - flow_18_19_0_0 - flow_18_20_0_0 - flow_18_26_0_0
   + flow_19_18_0_0 + flow_20_18_0_0 + flow_21_18_0_0 + flow_27_18_0_0
   + flow_28_18_0_0 = 1
 one_parent_19: edge_8_19_0_0 + edge_15_19_0_0 + edge_16_19_0_0
   + edge_17_19_0_0 + edge_18_19_0_0 + edge_20_19_0_0 + edge_21_19_0_0
   + edge_27_19_0_0 + edge_28_19_0_0 = 1
 consume_one_flow_unit_19: flow_8_19_0_0 + flow_15_19_0_0 + flow_16_19_0_0
   + flow_17_19_0_0 + flow_18_19_0_0 - flow_19_8_0_0 - flow_19_9_0_0
   - flow_19_14_0_0 - flow_19_15_0_0 - flow_19_16_0_0 - flow_19_17_0_0
   - flow_19_18_0_0 - flow_19_20_0_0 - flow_19_21_0_0 - flow_19_22_0_0
   - flow_19_25_0_0 - flow_19_26_0_0 - flow_19_27_0_0 - flow_19_28_0_0
   - flow_19_30_0_0 + flow_20_19_0_0 + flow_21_19_0_0 + flow_27_19_0_0
   + flow_28_19_0_0 = 1
 one_parent_20: edge_8_20_0_0 + edge_16_20_0_0 + edge_17_20_0_0
   + edge_18_20_0_0 + edge_19_20_0_0 + edge_21_20_0_0 + edge_25_20_0_0
   + edge_27_20_0_0 + edge_28_20_0_0 = 1
 consume_one_flow_unit_20: flow_8_20_0_0 + flow_16_20_0_0 + flow_17_20_0_0
   + flow_18_20_0_0 + flow_19_20_0_0 - flow_20_18_0_0 - flow_20_19_0_0
   + flow_21_20_0_0 + flow_25_20_0_0 + flow_27_20_0_0 + flow_28_20_0_0 = 1
 one_parent_21: edge_0_21_0_0 + edge_8_21_0_0 + edge_10_21_0_0
   + edge_16_21_0_0 + edge_17_21_0_0 + edge_19_21_0_0 + edge_25_21_0_0
   + edge_27_21_0_0 + edge_28_21_0_0 = 1
 consume_one_flow_unit_21: flow_0_21_0_0 + flow_8_21_0_0 + flow_10_21_0_0
   + flow_16_21_0_0 + flow_17_21_0_0 + flow_19_21_0_0 - flow_21_7_0_0
   - flow_21_12_0_0 - flow_21_14_0_0 - flow_21_15_0_0 - flow_21_16_0_0
   - flow_21_17_0_0 - flow_21_18_0_0 - flow_21_19_0_0 - flow_21_20_0_0
   - flow_21_22_0_0 - flow_21_25_0_0 - flow_21_26_0_0 - flow_21_27_0_0
   - flow_21_28_0_0 - flow_21_30_0_0 + flow_25_21_0_0 + flow_27_21_0_0
   + flow_28_21_0_0 = 1
 one_parent_22: edge_8_22_0_0 + edge_10_22_0_0 + edge_16_22_0_0
   + edge_17_22_0_0 + edge_19_22_0_0 + edge_21_22_0_0 + edge_25_22_0_0
   + edge_27_22_0_0 + edge_28_22_0_0 = 1
 consume_one_flow_unit_22: flow_8_22_0_0 + flow_10_22_0_0 + flow_16_22_0_0
   + flow_17_22_0_0 + flow_19_22_0_0 + flow_21_22_0_0 - flow_22_25_0_0
   + flow_25_22_0_0 + flow_27_22_0_0 + flow_28_22_0_0 = 1
 one_parent_23: = 1
 consume_one_flow_unit_23: = 1
 one_parent_24: = 1
 consume_one_flow_unit_24: = 1
 one_parent_25: edge_8_25_0_0 + edge_16_25_0_0 + edge_17_25_0_0
   + edge_19_25_0_0 + edge_21_25_0_0 + edge_22_25_0_0 + edge_26_25_0_0
   + edge_27_25_0_0 + edge_28_25_0_0 = 1
 consume_one_flow_unit_25: flow_8_25_0_0 + flow_16_25_0_0 + flow_17_25_0_0
   + flow_19_25_0_0 + flow_21_25_0_0 + flow_22_25_0_0 - flow_25_20_0_0
   - flow_25_21_0_0 - flow_25_22_0_0 - flow_25_26_0_0 - flow_25_27_0_0
   - flow_25_28_0_0 + flow_26_25_0_0 + flow_27_25_0_0 + flow_28_25_0_0 = 1
 one_parent_26: edge_8_26_0_0 + edge_17_26_0_0 + edge_18_26_0_0
   + edge_19_26_0_0 + edge_21_26_0_0 + edge_25_26_0_0 + edge_27_26_0_0
   + edge_28_26_0_0 = 1
 consume_one_flow_unit_26: flow_8_26_0_0 + flow_17_26_0_0 + flow_18_26_0_0
   + flow_19_26_0_0 + flow_21_26_0_0 + flow_25_26_0_0 - flow_26_25_0_0
   - flow_26_27_0_0 + flow_27_26_0_0 + flow_28_26_0_0 = 1
 one_parent_27: edge_8_27_0_0 + edge_16_27_0_0 + edge_17_27_0_0
   + edge_19_27_0_0 + edge_21_27_0_0 + edge_25_27_0_0 + edge_26_27_0_0
   + edge_28_27_0_0 = 1
 consume_one_flow_unit_27: flow_8_27_0_0 + flow_16_27_0_0 + flow_17_27_0_0
   + flow_19_27_0_0 + flow_21_27_0_0 + flow_25_27_0_0 + flow_26_27_0_0
   - flow_27_15_0_0 - flow_27_16_0_0 - flow_27_18_0_0 - flow_27_19_0_0
   - flow_27_20_0_0 - flow_27_21_0_0 - flow_27_22_0_0 - flow_27_25_0_0
   - flow_27_26_0_0 - flow_27_28_0_0 - flow_27_30_0_0 + flow_28_27_0_0 = 1
 one_parent_28: edge_4_28_0_0 + edge_8_28_0_0 + edge_10_28_0_0
   + edge_16_28_0_0 + edge_17_28_0_0 + edge_19_28_0_0 + edge_21_28_0_0
   + edge_25_28_0_0 + edge_27_28_0_0 = 1
 consume_one_flow_unit_28: flow_4_28_0_0 + flow_8_28_0_0 + flow_10_28_0_0
   + flow_16_28_0_0 + flow_17_28_0_0 + flow_19_28_0_0 + flow_21_28_0_0
   + flow_25_28_0_0 + flow_27_28_0_0 - flow_28_2_0_0 - flow_28_4_0_0
   - flow_28_6_0_0 - flow_28_7_0_0 - flow_28_8_0_0 - flow_28_9_0_0
   - flow_28_10_0_0 - flow_28_12_0_0 - flow_28_14_0_0 - flow_28_15_0_0
   - flow_28_16_0_0 - flow_28_17_0_0 - flow_28_18_0_0 - flow_28_19_0_0
   - flow_28_20_0_0 - flow_28_21_0_0 - flow_28_22_0_0 - flow_28_25_0_0
   - flow_28_26_0_0 - flow_28_27_0_0 - flow_28_30_0_0 = 1
 one_parent_29: = 1
 consume_one_flow_unit_29: = 1
 one_parent_30: edge_8_30_0_0 + edge_10_30_0_0 + edge_16_30_0_0
   + edge_17_30_0_0 + edge_19_30_0_0 + edge_21_30_0_0 + edge_27_30_0_0
   + edge_28_30_0_0 = 1
 consume_one_flow_unit_30: flow_8_30_0_0 + flow_10_30_0_0 + flow_16_30_0_0
   + flow_17_30_0_0 + flow_19_30_0_0 + flow_21_30_0_0 + flow_27_30_0_0
   + flow_28_30_0_0 = 1
 root_flow: flow_0_1_0_0 + flow_0_4_0_0 + flow_0_6_0_0 + flow_0_7_0_0
   + flow_0_8_0_0 + flow_0_10_0_0 + flow_0_11_0_0 + flow_0_16_0_0
   + flow_0_17_0_0 + flow_0_21_0_0 = 30
 inactive_no_flow_0_1_0_0: flow_0_1_0_0 - 1000 edge_0_1_0_0 <= 0
 inactive_no_flow_0_4_0_0: flow_0_4_0_0 - 1000 edge_0_4_0_0 <= 0
 inactive_no_flow_0_6_0_0: flow_0_6_0_0 - 1000 edge_0_6_0_0 <= 0
 inactive_no_flow_0_7_0_0: flow_0_7_0_0 - 1000 edge_0_7_0_0 <= 0
 inactive_no_flow_0_8_0_0: flow_0_8_0_0 - 1000 edge_0_8_0_0 <= 0
 inactive_no_flow_0_10_0_0: flow_0_10_0_0 - 1000 edge_0_10_0_0 <= 0
 inactive_no_flow_0_11_0_0: flow_0_11_0_0 - 1000 edge_0_11_0_0 <= 0
 inactive_no_flow_0_16_0_0: flow_0_16_0_0 - 1000 edge_0_16_0_0 <= 0
 inactive_no_flow_0_17_0_0: flow_0_17_0_0 - 1000 edge_0_17_0_0 <= 0
 inactive_no_flow_0_21_0_0: flow_0_21_0_0 - 1000 edge_0_21_0_0 <= 0
 inactive_no_flow_1_2_0_0: flow_1_2_0_0 - 1000 edge_1_2_0_0 <= 0
 inactive_no_flow_1_4_0_0: flow_1_4_0_0 - 1000 edge_1_4_0_0 <= 0
 inactive_no_flow_1_6_0_0: flow_1_6_0_0 - 1000 edge_1_6_0_0 <= 0
 inactive_no_flow_1_8_0_0: flow_1_8_0_0 - 1000 edge_1_8_0_0 <= 0
 inactive_no_flow_2_1_0_0: flow_2_1_0_0 - 1000 edge_2_1_0_0 <= 0
 inactive_no_flow_2_4_0_0: flow_2_4_0_0 - 1000 edge_2_4_0_0 <= 0
 inactive_no_flow_4_1_0_0: flow_4_1_0_0 - 1000 edge_4_1_0_0 <= 0
 inactive_no_flow_4_2_0_0: flow_4_2_0_0 - 1000 edge_4_2_0_0 <= 0
 inactive_no_flow_4_6_0_0: flow_4_6_0_0 - 1000 edge_4_6_0_0 <= 0
 inactive_no_flow_4_7_0_0: flow_4_7_0_0 - 1000 edge_4_7_0_0 <= 0
 inactive_no_flow_4_8_0_0: flow_4_8_0_0 - 1000 edge_4_8_0_0 <= 0
 inactive_no_flow_4_10_0_0: flow_4_10_0_0 - 1000 edge_4_10_0_0 <= 0
 inactive_no_flow_4_11_0_0: flow_4_11_0_0 - 1000 edge_4_11_0_0 <= 0
 inactive_no_flow_4_12_0_0: flow_4_12_0_0 - 1000 edge_4_12_0_0 <= 0
 inactive_no_flow_4_17_0_0: flow_4_17_0_0 - 1000 edge_4_17_0_0 <= 0
 inactive_no_flow_4_28_0_0: flow_4_28_0_0 - 1000 edge_4_28_0_0 <= 0
 inactive_no_flow_6_1_0_0: flow_6_1_0_0 - 1000 edge_6_1_0_0 <= 0
 inactive_no_flow_6_2_0_0: flow_6_2_0_0 - 1000 edge_6_2_0_0 <= 0
 inactive_no_flow_6_4_0_0: flow_6_4_0_0 - 1000 edge_6_4_0_0 <= 0
 inactive_no_flow_6_7_0_0: flow_6_7_0_0 - 1000 edge_6_7_0_0 <= 0
 inactive_no_flow_6_8_0_0: flow_6_8_0_0 - 1000 edge_6_8_0_0 <= 0
 inactive_no_flow_6_10_0_0: flow_6_10_0_0 - 1000 edge_6_10_0_0 <= 0
 inactive_no_flow_6_11_0_0: flow_6_11_0_0 - 1000 edge_6_11_0_0 <= 0
 inactive_no_flow_7_1_0_0: flow_7_1_0_0 - 1000 edge_7_1_0_0 <= 0
 inactive_no_flow_7_2_0_0: flow_7_2_0_0 - 1000 edge_7_2_0_0 <= 0
 inactive_no_flow_7_4_0_0: flow_7_4_0_0 - 1000 edge_7_4_0_0 <= 0
 inactive_no_flow_7_6_0_0: flow_7_6_0_0 - 1000 edge_7_6_0_0 <= 0
 inactive_no_flow_7_8_0_0: flow_7_8_0_0 - 1000 edge_7_8_0_0 <= 0
 inactive_no_flow_7_9_0_0: flow_7_9_0_0 - 1000 edge_7_9_0_0 <= 0
 inactive_no_flow_7_10_0_0: flow_7_10_0_0 - 1000 edge_7_10_0_0 <= 0
 inactive_no_flow_7_11_0_0: flow_7_11_0_0 - 1000 edge_7_11_0_0 <= 0
 inactive_no_flow_7_17_0_0: flow_7_17_0_0 - 1000 edge_7_17_0_0 <= 0
 inactive_no_flow_8_1_0_0: flow_8_1_0_0 - 1000 edge_8_1_0_0 <= 0
 inactive_no_flow_8_2_0_0: flow_8_2_0_0 - 1000 edge_8_2_0_0 <= 0
 inactive_no_flow_8_4_0_0: flow_8_4_0_0 - 1000 edge_8_4_0_0 <= 0
 inactive_no_flow_8_6_0_0: flow_8_6_0_0 - 1000 edge_8_6_0_0 <= 0
 inactive_no_flow_8_7_0_0: flow_8_7_0_0 - 1000 edge_8_7_0_0 <= 0
 inactive_no_flow_8_9_0_0: flow_8_9_0_0 - 1000 edge_8_9_0_0 <= 0
 inactive_no_flow_8_10_0_0: flow_8_10_0_0 - 1000 edge_8_10_0_0 <= 0
 inactive_no_flow_8_11_0_0: flow_8_11_0_0 - 1000 edge_8_11_0_0 <= 0
 inactive_no_flow_8_12_0_0: flow_8_12_0_0 - 1000 edge_8_12_0_0 <= 0
 inactive_no_flow_8_14_0_0: flow_8_14_0_0 - 1000 edge_8_14_0_0 <= 0
 inactive_no_flow_8_15_0_0: flow_8_15_0_0 - 1000 edge_8_15_0_0 <= 0
 inactive_no_flow_8_16_0_0: flow_8_16_0_0 - 1000 edge_8_16_0_0 <= 0
 inactive_no_flow_8_17_0_0: flow_8_17_0_0 - 1000 edge_8_17_0_0 <= 0
 inactive_no_flow_8_18_0_0: flow_8_18_0_0 - 1000 edge_8_18_0_0 <= 0
 inactive_no_flow_8_19_0_0: flow_8_19_0_0 - 1000 edge_8_19_0_0 <= 0
 inactive_no_flow_8_20_0_0: flow_8_20_0_0 - 1000 edge_8_20_0_0 <= 0
 inactive_no_flow_8_21_0_0: flow_8_21_0_0 - 1000 edge_8_21_0_0 <= 0
 inactive_no_flow_8_22_0_0: flow_8_22_0_0 - 1000 edge_8_22_0_0 <= 0
 inactive_no_flow_8_25_0_0: flow_8_25_0_0 - 1000 edge_8_25_0_0 <= 0
 inactive_no_flow_8_26_0_0: flow_8_26_0_0 - 1000 edge_8_26_0_0 <= 0
 inactive_no_flow_8_27_0_0: flow_8_27_0_0 - 1000 edge_8_27_0_0 <= 0
 inactive_no_flow_8_28_0_0: flow_8_28_0_0 - 1000 edge_8_28_0_0 <= 0
 inactive_no_flow_8_30_0_0: flow_8_30_0_0 - 1000 edge_8_30_0_0 <= 0
 inactive_no_flow_9_11_0_0: flow_9_11_0_0 - 1000 edge_9_11_0_0 <= 0
 inactive_no_flow_10_1_0_0: flow_10_1_0_0 - 1000 edge_10_1_0_0 <= 0
 inactive_no_flow_10_2_0_0: flow_10_2_0_0 - 1000 edge_10_2_0_0 <= 0
 inactive_no_flow_10_4_0_0: flow_10_4_0_0 - 1000 edge_10_4_0_0 <= 0
 inactive_no_flow_10_6_0_0: flow_10_6_0_0 - 1000 edge_10_6_0_0 <= 0
 inactive_no_flow_10_7_0_0: flow_10_7_0_0 - 1000 edge_10_7_0_0 <= 0
 inactive_no_flow_10_8_0_0: flow_10_8_0_0 - 1000 edge_10_8_0_0 <= 0
 inactive_no_flow_10_9_0_0: flow_10_9_0_0 - 1000 edge_10_9_0_0 <= 0
 inactive_no_flow_10_11_0_0: flow_10_11_0_0 - 1000 edge_10_11_0_0 <= 0
 inactive_no_flow_10_12_0_0: flow_10_12_0_0 - 1000 edge_10_12_0_0 <= 0
 inactive_no_flow_10_14_0_0: flow_10_14_0_0 - 1000 edge_10_14_0_0 <= 0
 inactive_no_flow_10_15_0_0: flow_10_15_0_0 - 1000 edge_10_15_0_0 <= 0
 inactive_no_flow_10_16_0_0: flow_10_16_0_0 - 1000 edge_10_16_0_0 <= 0
 inactive_no_flow_10_17_0_0: flow_10_17_0_0 - 1000 edge_10_17_0_0 <= 0
 inactive_no_flow_10_21_0_0: flow_10_21_0_0 - 1000 edge_10_21_0_0 <= 0
 inactive_no_flow_10_22_0_0: flow_10_22_0_0 - 1000 edge_10_22_0_0 <= 0
 inactive_no_flow_10_28_0_0: flow_10_28_0_0 - 1000 edge_10_28_0_0 <= 0
 inactive_no_flow_10_30_0_0: flow_10_30_0_0 - 1000 edge_10_30_0_0 <= 0
 inactive_no_flow_11_2_0_0: flow_11_2_0_0 - 1000 edge_11_2_0_0 <= 0
 inactive_no_flow_11_6_0_0: flow_11_6_0_0 - 1000 edge_11_6_0_0 <= 0
 inactive_no_flow_11_7_0_0: flow_11_7_0_0 - 1000 edge_11_7_0_0 <= 0
 inactive_no_flow_11_9_0_0: flow_11_9_0_0 - 1000 edge_11_9_0_0 <= 0
 inactive_no_flow_11_17_0_0: flow_11_17_0_0 - 1000 edge_11_17_0_0 <= 0
 inactive_no_flow_12_10_0_0: flow_12_10_0_0 - 1000 edge_12_10_0_0 <= 0
 inactive_no_flow_12_14_0_0: flow_12_14_0_0 - 1000 edge_12_14_0_0 <= 0
 inactive_no_flow_14_9_0_0: flow_14_9_0_0 - 1000 edge_14_9_0_0 <= 0
 inactive_no_flow_14_12_0_0: flow_14_12_0_0 - 1000 edge_14_12_0_0 <= 0
 inactive_no_flow_14_15_0_0: flow_14_15_0_0 - 1000 edge_14_15_0_0 <= 0
 inactive_no_flow_15_1_0_0: flow_15_1_0_0 - 1000 edge_15_1_0_0 <= 0
 inactive_no_flow_15_9_0_0: flow_15_9_0_0 - 1000 edge_15_9_0_0 <= 0
 inactive_no_flow_15_10_0_0: flow_15_10_0_0 - 1000 edge_15_10_0_0 <= 0
 inactive_no_flow_15_12_0_0: flow_15_12_0_0 - 1000 edge_15_12_0_0 <= 0
 inactive_no_flow_15_14_0_0: flow_15_14_0_0 - 1000 edge_15_14_0_0 <= 0
 inactive_no_flow_15_16_0_0: flow_15_16_0_0 - 1000 edge_15_16_0_0 <= 0
 inactive_no_flow_15_18_0_0: flow_15_18_0_0 - 1000 edge_15_18_0_0 <= 0
 inactive_no_flow_15_19_0_0: flow_15_19_0_0 - 1000 edge_15_19_0_0 <= 0
 inactive_no_flow_16_12_0_0: flow_16_12_0_0 - 1000 edge_16_12_0_0 <= 0
 inactive_no_flow_16_14_0_0: flow_16_14_0_0 - 1000 edge_16_14_0_0 <= 0
 inactive_no_flow_16_15_0_0: flow_16_15_0_0 - 1000 edge_16_15_0_0 <= 0
 inactive_no_flow_16_17_0_0: flow_16_17_0_0 - 1000 edge_16_17_0_0 <= 0
 inactive_no_flow_16_18_0_0: flow_16_18_0_0 - 1000 edge_16_18_0_0 <= 0
 inactive_no_flow_16_19_0_0: flow_16_19_0_0 - 1000 edge_16_19_0_0 <= 0
 inactive_no_flow_16_20_0_0: flow_16_20_0_0 - 1000 edge_16_20_0_0 <= 0
 inactive_no_flow_16_21_0_0: flow_16_21_0_0 - 1000 edge_16_21_0_0 <= 0
 inactive_no_flow_16_22_0_0: flow_16_22_0_0 - 1000 edge_16_22_0_0 <= 0
 inactive_no_flow_16_25_0_0: flow_16_25_0_0 - 1000 edge_16_25_0_0 <= 0
 inactive_no_flow_16_27_0_0: flow_16_27_0_0 - 1000 edge_16_27_0_0 <= 0
 inactive_no_flow_16_28_0_0: flow_16_28_0_0 - 1000 edge_16_28_0_0 <= 0
 inactive_no_flow_16_30_0_0: flow_16_30_0_0 - 1000 edge_16_30_0_0 <= 0
 inactive_no_flow_17_1_0_0: flow_17_1_0_0 - 1000 edge_17_1_0_0 <= 0
 inactive_no_flow_17_2_0_0: flow_17_2_0_0 - 1000 edge_17_2_0_0 <= 0
 inactive_no_flow_17_4_0_0: flow_17_4_0_0 - 1000 edge_17_4_0_0 <= 0
 inactive_no_flow_17_6_0_0: flow_17_6_0_0 - 1000 edge_17_6_0_0 <= 0
 inactive_no_flow_17_7_0_0: flow_17_7_0_0 - 1000 edge_17_7_0_0 <= 0
 inactive_no_flow_17_8_0_0: flow_17_8_0_0 - 1000 edge_17_8_0_0 <= 0
 inactive_no_flow_17_9_0_0: flow_17_9_0_0 - 1000 edge_17_9_0_0 <= 0
 inactive_no_flow_17_10_0_0: flow_17_10_0_0 - 1000 edge_17_10_0_0 <= 0
 inactive_no_flow_17_11_0_0: flow_17_11_0_0 - 1000 edge_17_11_0_0 <= 0
 inactive_no_flow_17_12_0_0: flow_17_12_0_0 - 1000 edge_17_12_0_0 <= 0
 inactive_no_flow_17_14_0_0: flow_17_14_0_0 - 1000 edge_17_14_0_0 <= 0
 inactive_no_flow_17_15_0_0: flow_17_15_0_0 - 1000 edge_17_15_0_0 <= 0
 inactive_no_flow_17_16_0_0: flow_17_16_0_0 - 1000 edge_17_16_0_0 <= 0
 inactive_no_flow_17_18_0_0: flow_17_18_0_0 - 1000 edge_17_18_0_0 <= 0
 inactive_no_flow_17_19_0_0: flow_17_19_0_0 - 1000 edge_17_19_0_0 <= 0
 inactive_no_flow_17_20_0_0: flow_17_20_0_0 - 1000 edge_17_20_0_0 <= 0
 inactive_no_flow_17_21_0_0: flow_17_21_0_0 - 1000 edge_17_21_0_0 <= 0
 inactive_no_flow_17_22_0_0: flow_17_22_0_0 - 1000 edge_17_22_0_0 <= 0
 inactive_no_flow_17_25_0_0: flow_17_25_0_0 - 1000 edge_17_25_0_0 <= 0
 inactive_no_flow_17_26_0_0: flow_17_26_0_0 - 1000 edge_17_26_0_0 <= 0
 inactive_no_flow_17_27_0_0: flow_17_27_0_0 - 1000 edge_17_27_0_0 <= 0
 inactive_no_flow_17_28_0_0: flow_17_28_0_0 - 1000 edge_17_28_0_0 <= 0
 inactive_no_flow_17_30_0_0: flow_17_30_0_0 - 1000 edge_17_30_0_0 <= 0
 inactive_no_flow_18_19_0_0: flow_18_19_0_0 - 1000 edge_18_19_0_0 <= 0
 inactive_no_flow_18_20_0_0: flow_18_20_0_0 - 1000 edge_18_20_0_0 <= 0
 inactive_no_flow_18_26_0_0: flow_18_26_0_0 - 1000 edge_18_26_0_0 <= 0
 inactive_no_flow_19_8_0_0: flow_19_8_0_0 - 1000 edge_19_8_0_0 <= 0
 inactive_no_flow_19_9_0_0: flow_19_9_0_0 - 1000 edge_19_9_0_0 <= 0
 inactive_no_flow_19_14_0_0: flow_19_14_0_0 - 1000 edge_19_14_0_0 <= 0
 inactive_no_flow_19_15_0_0: flow_19_15_0_0 - 1000 edge_19_15_0_0 <= 0
 inactive_no_flow_19_16_0_0: flow_19_16_0_0 - 1000 edge_19_16_0_0 <= 0
 inactive_no_flow_19_17_0_0: flow_19_17_0_0 - 1000 edge_19_17_0_0 <= 0
 inactive_no_flow_19_18_0_0: flow_19_18_0_0 - 1000 edge_19_18_0_0 <= 0
 inactive_no_flow_19_20_0_0: flow_19_20_0_0 - 1000 edge_19_20_0_0 <= 0
 inactive_no_flow_19_21_0_0: flow_19_21_0_0 - 1000 edge_19_21_0_0 <= 0
 inactive_no_flow_19_22_0_0: flow_19_22_0_0 - 1000 edge_19_22_0_0 <= 0
 inactive_no_flow_19_25_0_0: flow_19_25_0_0 - 1000 edge_19_25_0_0 <= 0
 inactive_no_flow_19_26_0_0: flow_19_26_0_0 - 1000 edge_19_26_0_0 <= 0
 inactive_no_flow_19_27_0_0: flow_19_27_0_0 - 1000 edge_19_27_0_0 <= 0
 inactive_no_flow_19_28_0_0: flow_19_28_0_0 - 1000 edge_19_28_0_0 <= 0
 inactive_no_flow_19_30_0_0: flow_19_30_0_0 - 1000 edge_19_30_0_0 <= 0
 inactive_no_flow_20_18_0_0: flow_20_18_0_0 - 1000 edge_20_18_0_0 <= 0
 inactive_no_flow_20_19_0_0: flow_20_19_0_0 - 1000 edge_20_19_0_0 <= 0
 inactive_no_flow_21_7_0_0: flow_21_7_0_0 - 1000 edge_21_7_0_0 <= 0
 inactive_no_flow_21_12_0_0: flow_21_12_0_0 - 1000 edge_21_12_0_0 <= 0
 inactive_no_flow_21_14_0_0: flow_21_14_0_0 - 1000 edge_21_14_0_0 <= 0
 inactive_no_flow_21_15_0_0: flow_21_15_0_0 - 1000 edge_21_15_0_0 <= 0
 inactive_no_flow_21_16_0_0: flow_21_16_0_0 - 1000 edge_21_16_0_0 <= 0
 inactive_no_flow_21_17_0_0: flow_21_17_0_0 - 1000 edge_21_17_0_0 <= 0
 inactive_no_flow_21_18_0_0: flow_21_18_0_0 - 1000 edge_21_18_0_0 <= 0
 inactive_no_flow_21_19_0_0: flow_21_19_0_0 - 1000 edge_21_19_0_0 <= 0
 inactive_no_flow_21_20_0_0: flow_21_20_0_0 - 1000 edge_21_20_0_0 <= 0
 inactive_no_flow_21_22_0_0: flow_21_22_0_0 - 1000 edge_21_22_0_0 <= 0
 inactive_no_flow_21_25_0_0: flow_21_25_0_0 - 1000 edge_21_25_0_0 <= 0
 inactive_no_flow_21_26_0_0: flow_21_26_0_0 - 1000 edge_21_26_0_0 <= 0
 inactive_no_flow_21_27_0_0: flow_21_27_0_0 - 1000 edge_21_27_0_0 <= 0
 inactive_no_flow_21_28_0_0: flow_21_28_0_0 - 1000 edge_21_28_0_0 <= 0
 inactive_no_flow_21_30_0_0: flow_21_30_0_0 - 1000 edge_21_30_0_0 <= 0
 inactive_no_flow_22_25_0_0: flow_22_25_0_0 - 1000 edge_22_25_0_0 <= 0
 inactive_no_flow_25_20_0_0: flow_25_20_0_0 - 1000 edge_25_20_0_0 <= 0
 inactive_no_flow_25_21_0_0: flow_25_21_0_0 - 1000 edge_25_21_0_0 <= 0
 inactive_no_flow_25_22_0_0: flow_25_22_0_0 - 1000 edge_25_22_0_0 <= 0
 inactive_no_flow_25_26_0_0: flow_25_26_0_0 - 1000 edge_25_26_0_0 <= 0
 inactive_no_flow_25_27_0_0: flow_25_27_0_0 - 1000 edge_25_27_0_0 <= 0
 inactive_no_flow_25_28_0_0: flow_25_28_0_0 - 1000 edge_25_28_0_0 <= 0
 inactive_no_flow_26_25_0_0: flow_26_25_0_0 - 1000 edge_26_25_0_0 <= 0
 inactive_no_flow_26_27_0_0: flow_26_27_0_0 - 1000 edge_26_27_0_0 <= 0
 inactive_no_flow_27_15_0_0: flow_27_15_0_0 - 1000 edge_27_15_0_0 <= 0
 inactive_no_flow_27_16_0_0: flow_27_16_0_0 - 1000 edge_27_16_0_0 <= 0
 inactive_no_flow_27_18_0_0: flow_27_18_0_0 - 1000 edge_27_18_0_0 <= 0
 inactive_no_flow_27_19_0_0: flow_27_19_0_0 - 1000 edge_27_19_0_0 <= 0
 inactive_no_flow_27_20_0_0: flow_27_20_0_0 - 1000 edge_27_20_0_0 <= 0
 inactive_no_flow_27_21_0_0: flow_27_21_0_0 - 1000 edge_27_21_0_0 <= 0
 inactive_no_flow_27_22_0_0: flow_27_22_0_0 - 1000 edge_27_22_0_0 <= 0
 inactive_no_flow_27_25_0_0: flow_27_25_0_0 - 1000 edge_27_25_0_0 <= 0
 inactive_no_flow_27_26_0_0: flow_27_26_0_0 - 1000 edge_27_26_0_0 <= 0
 inactive_no_flow_27_28_0_0: flow_27_28_0_0 - 1000 edge_27_28_0_0 <= 0
 inactive_no_flow_27_30_0_0: flow_27_30_0_0 - 1000 edge_27_30_0_0 <= 0
 inactive_no_flow_28_2_0_0: flow_28_2_0_0 - 1000 edge_28_2_0_0 <= 0
 inactive_no_flow_28_4_0_0: flow_28_4_0_0 - 1000 edge_28_4_0_0 <= 0
 inactive_no_flow_28_6_0_0: flow_28_6_0_0 - 1000 edge_28_6_0_0 <= 0
 inactive_no_flow_28_7_0_0: flow_28_7_0_0 - 1000 edge_28_7_0_0 <= 0
 inactive_no_flow_28_8_0_0: flow_28_8_0_0 - 1000 edge_28_8_0_0 <= 0
 inactive_no_flow_28_9_0_0: flow_28_9_0_0 - 1000 edge_28_9_0_0 <= 0
 inactive_no_flow_28_10_0_0: flow_28_10_0_0 - 1000 edge_28_10_0_0 <= 0
 inactive_no_flow_28_12_0_0: flow_28_12_0_0 - 1000 edge_28_12_0_0 <= 0
 inactive_no_flow_28_14_0_0: flow_28_14_0_0 - 1000 edge_28_14_0_0 <= 0
 inactive_no_flow_28_15_0_0: flow_28_15_0_0 - 1000 edge_28_15_0_0 <= 0
 inactive_no_flow_28_16_0_0: flow_28_16_0_0 - 1000 edge_28_16_0_0 <= 0
 inactive_no_flow_28_17_0_0: flow_28_17_0_0 - 1000 edge_28_17_0_0 <= 0
 inactive_no_flow_28_18_0_0: flow_28_18_0_0 - 1000 edge_28_18_0_0 <= 0
 inactive_no_flow_28_19_0_0: flow_28_19_0_0 - 1000 edge_28_19_0_0 <= 0
 inactive_no_flow_28_20_0_0: flow_28_20_0_0 - 1000 edge_28_20_0_0 <= 0
 inactive_no_flow_28_21_0_0: flow_28_21_0_0 - 1000 edge_28_21_0_0 <= 0
 inactive_no_flow_28_22_0_0: flow_28_22_0_0 - 1000 edge_28_22_0_0 <= 0
 inactive_no_flow_28_25_0_0: flow_28_25_0_0 - 1000 edge_28_25_0_0 <= 0
 inactive_no_flow_28_26_0_0: flow_28_26_0_0 - 1000 edge_28_26_0_0 <= 0
 inactive_no_flow_28_27_0_0: flow_28_27_0_0 - 1000 edge_28_27_0_0 <= 0
 inactive_no_flow_28_30_0_0: flow_28_30_0_0 - 1000 edge_28_30_0_0 <= 0
Bounds
Binaries
 edge_0_1_0_0 edge_0_4_0_0 edge_0_6_0_0 edge_0_7_0_0 edge_0_8_0_0
 edge_0_10_0_0 edge_0_11_0_0 edge_0_16_0_0 edge_0_17_0_0 edge_0_21_0_0
 edge_1_2_0_0 edge_1_4_0_0 edge_1_6_0_0 edge_1_8_0_0 edge_2_1_0_0
 edge_2_4_0_0 edge_4_1_0_0 edge_4_2_0_0 edge_4_6_0_0 edge_4_7_0_0
 edge_4_8_0_0 edge_4_10_0_0 edge_4_11_0_0 edge_4_12_0_0 edge_4_17_0_0
 edge_4_28_0_0 edge_6_1_0_0 edge_6_2_0_0 edge_6_4_0_0 edge_6_7_0_0
 edge_6_8_0_0 edge_6_10_0_0 edge_6_11_0_0 edge_7_1_0_0 edge_7_2_0_0
 edge_7_4_0_0 edge_7_6_0_0 edge_7_8_0_0 edge_7_9_0_0 edge_7_10_0_0
 edge_7_11_0_0 edge_7_17_0_0 edge_8_1_0_0 edge_8_2_0_0 edge_8_4_0_0
 edge_8_6_0_0 edge_8_7_0_0 edge_8_9_0_0 edge_8_10_0_0 edge_8_11_0_0
 edge_8_12_0_0 edge_8_14_0_0 edge_8_15_0_0 edge_8_16_0_0 edge_8_17_0_0
 edge_8_18_0_0 edge_8_19_0_0 edge_8_20_0_0 edge_8_21_0_0 edge_8_22_0_0
 edge_8_25_0_0 edge_8_26_0_0 edge_8_27_0_0 edge_8_28_0_0 edge_8_30_0_0
 edge_9_11_0_0 edge_10_1_0_0 edge_10_2_0_0 edge_10_4_0_0 edge_10_6_0_0
 edge_10_7_0_0 edge_10_8_0_0 edge_10_9_0_0 edge_10_11_0_0 edge_10_12_0_0
 edge_10_14_0_0 edge_10_15_0_0 edge_10_16_0_0 edge_10_17_0_0 edge_10_21_0_0
 edge_10_22_0_0 edge_10_28_0_0 edge_10_30_0_0 edge_11_2_0_0 edge_11_6_0_0
 edge_11_7_0_0 edge_11_9_0_0 edge_11_17_0_0 edge_12_10_0_0 edge_12_14_0_0
 edge_14_9_0_0 edge_14_12_0_0 edge_14_15_0_0 edge_15_1_0_0 edge_15_9_0_0
 edge_15_10_0_0 edge_15_12_0_0 edge_15_14_0_0 edge_15_16_0_0 edge_15_18_0_0
 edge_15_19_0_0 edge_16_12_0_0 edge_16_14_0_0 edge_16_15_0_0 edge_16_17_0_0
 edge_16_18_0_0 edge_16_19_0_0 edge_16_20_0_0 edge_16_21_0_0 edge_16_22_0_0
 edge_16_25_0_0 edge_16_27_0_0 edge_16_28_0_0 edge_16_30_0_0 edge_17_1_0_0
 edge_17_2_0_0 edge_17_4_0_0 edge_17_6_0_0 edge_17_7_0_0 edge_17_8_0_0
 edge_17_9_0_0 edge_17_10_0_0 edge_17_11_0_0 edge_17_12_0_0 edge_17_14_0_0
 edge_17_15_0_0 edge_17_16_0_0 edge_17_18_0_0 edge_17_19_0_0 edge_17_20_0_0
 edge_17_21_0_0 edge_17_22_0_0 edge_17_25_0_0 edge_17_26_0_0 edge_17_27_0_0
 edge_17_28_0_0 edge_17_30_0_0 edge_18_19_0_0 edge_18_20_0_0 edge_18_26_0_0
 edge_19_8_0_0 edge_19_9_0_0 edge_19_14_0_0 edge_19_15_0_0 edge_19_16_0_0
 edge_19_17_0_0 edge_19_18_0_0 edge_19_20_0_0 edge_19_21_0_0 edge_19_22_0_0
 edge_19_25_0_0 edge_19_26_0_0 edge_19_27_0_0 edge_19_28_0_0 edge_19_30_0_0
 edge_20_18_0_0 edge_20_19_0_0 edge_21_7_0_0 edge_21_12_0_0 edge_21_14_0_0
 edge_21_15_0_0 edge_21_16_0_0 edge_21_17_0_0 edge_21_18_0_0 edge_21_19_0_0
 edge_21_20_0_0 edge_21_22_0_0 edge_21_25_0_0 edge_21_26_0_0 edge_21_27_0_0
 edge_21_28_0_0 edge_21_30_0_0 edge_22_25_0_0 edge_25_20_0_0 edge_25_21_0_0
 edge_25_22_0_0 edge_25_26_0_0 edge_25_27_0_0 edge_25_28_0_0 edge_26_25_0_0
 edge_26_27_0_0 edge_27_15_0_0 edge_27_16_0_0 edge_27_18_0_0 edge_27_19_0_0
 edge_27_20_0_0 edge_27_21_0_0 edge_27_22_0_0 edge_27_25_0_0 edge_27_26_0_0
 edge_27_28_0_0 edge_27_30_0_0 edge_28_2_0_0 edge_28_4_0_0 edge_28_6_0_0
 edge_28_7_0_0 edge_28_8_0_0 edge_28_9_0_0 edge_28_10_0_0 edge_28_12_0_0
 edge_28_14_0_0 edge_28_15_0_0 edge_28_16_0_0 edge_28_17_0_0 edge_28_18_0_0
 edge_28_19_0_0 edge_28_20_0_0 edge_28_21_0_0 edge_28_22_0_0 edge_28_25_0_0
 edge_28_26_0_0 edge_28_27_0_0 edge_28_30_0_0
End
